c 21_4_checker_5cl.cnf
c
c field = 21
c formula set type = 4_checker_5cl
c
p cnf 5 6
10 
70 
100 
130 
-160 
11 
71 
101 
131 
-161 
8 
72 
104 
136 
-168 
9 
73 
105 
137 
-169 
12 
68 
96 
124 
-152 
13 
69 
97 
125 
-153 
